24433,
24044,
22431,
22431,
21750,
21750,
21470,
20542,
20199,
20050,
18892,
18573,
18187,
17967,
17847,
17701,
17555,
17450,
17300,
17300,
17300,
17191,
16942,
16942,
16942,
16942,
16942,
16942,
16942,
16942,
16942,
16942,
16942,
16942,
16942,
16942,
16942,
16942,
16942,
16942,
16942,
16942,
16942,
16942,
16860,
16860,
16860,
16860,
16860,
16860,
16860,
16860,
16860,
16860,
16860,
16436,
16436,
16436,
16436,
16316,
16316,
16316,
16316,
16316,
16316,
16316,
16316,
16316,
16316,
16316,
16316,
16316,
16316,
16316,
15570,
15570,
15570,
15570,
15570,
15570,
15570,
15570,
15570,
15570,
15570,
15570,
15570,
15570,
15570,
15570,
15570,
15570,
15570,
15570,
15570,
15570,
15570,
15570,
15570,
15570,
15570,
15570,
15570,
15570,
15569,
15569,
15569,
15569,
15569,
15539,
15539,
15539,
15539,
15539,
15539,
15539,
15539,
15539,
15279,
15279,
15279,
15255,
15255,
15255,
15255,
15255,
15060,
15060,
15060,
15060,
15060,
15060,
15060,
15060,
15060,
15060,
15060,
15060,
15060,
15060,
15053,
15053,
15053,
15053,
15053,
15053,
15038,
15038,
15038,
15038,
15038,
15038,
15038,
15038,
15038,
15038,
15038,
15038,
15038,
15038,
15038,
15038,
15038,
15038,
15038,
15038,
15038,
15038,
15038,
15038,
15038,
15038,
15038,
15038,
15038,
15026,
15026,
15026,
15026,
15026,
15026,
15026,
15026,
15026,
15026,
15026,
15026,
15026,
15026,
15026,
15026,
15026,
15026,
15026,
15026,
15026,
15026,
15026,
15026,
15026,
15026,
15026,
15026,
15026,
15026,
15026,
15026,
15026,
15026,
15026,
15026,
15026,
15026,
15026,
15026,
15026,
15026,
15026,
15026,
15026,
15026,
15026,
15026,
14789,
14789,
14789,
14789,
14789,
14789,
14789,
14789,
14789,
14789,
14789,
14789,
14789,
14789,
14789,
14789,
14789,
14789,
14766,
14766,
14766,
14766,
14766,
14766,
14766,
14766,
14766,
14766,
14766,
14766,
14766,
14766,
14766,
14766,
14766,
14766,
14766,
14766,
14766,
14766,
14369,
14369,
14073,
14073,
14073,
14073,
13964,
13964,
13964,
13881,
13881,
13881,
13881,
13881,
13881,
13881,
13881,
13881,
13881,
13881,
13881,
13881,
13881,
13881,
13881,
13881,
13881,
13881,
13881,
13881,
13881,
13881,
13881,
13881,
13881,
13881,
13881,
13881,
13881,
13881,
13881,
13881,
13881,
13881,
13881,
13881,
13881,
13881,
13881,
13881,
13881,
13881,
13881,
13881,
13881,
13881,
13881,
13881,
13881,
13881,
13881,
13881,
13881,
13881,
13881,
13881,
13881,
13881,
13881,
13881,
13881,
13881,
13881,
13881,
13881,
13881,
13881,
13881,
13881,
13881,
13881,
13871,
13871,
13865,
13865,
13865,
13865,
13865,
13865,
13865,
13865,
13865,
13865,
13865,
13865,
13865,
13865,
13865,
13865,
13865,
13865,
13865,
13865,
13865,
13865,
13865,
13865,
13865,
13865,
13865,
13865,
13865,
13865,
13865,
13865,
13865,
13865,
13865,
13865,
13865,
13865,
13865,
13861,
13861,
13861,
13861,
13861,
13861,
13861,
13861,
13861,
13835,
13835,
13835,
13835,
13835,
13835,
13835,
13811,
13811,
13811,
13811,
13804,
13804,
13804,
13804,
13804,
13804,
13804,
13804,
13804,
13804,
13804,
13804,
13804,
13804,
13804,
13804,
13804,
13804,
13804,
13804,
13804,
13804,
13804,
13804,
13804,
13804,
13663,
13663,
13663,
13663,
13663,
13663,
13663,
13432,
13432,
13432,
13432,
13432,
13432,
13432,
13432,
13432,
13432,
13432,
13402,
13402,
13402,
13402,
13402,
13402,
13402,
13402,
13402,
13402,
13402,
13402,
13402,
13402,
13402,
13402,
13402,
13402,
13402,
13402,
13402,
13065,
13065,
13065,
13065,
13050,
13050,
13050,
13050,
13050,
13050,
13050,
13050,
13050,
13050,
13050,
13050,
13050,
13050,
13050,
13050,
13050,
13050,
13050,
13050,
13050,
13050,
13050,
13050,
13050,
13050,
13047,
13047,
13047,
13047,
13047,
13047,
13047,
13047,
13047,
13047,
13047,
13047,
13047,
13013,
13013,
13013,
13013,
13013,
13013,
13013,
13013,
13013,
13013,
13013,
13013,
13013,
13013,
13013,
13013,
12987,
12987,
12987,
12987,
12987,
12987,
12987,
12987,
12987,
12987,
12987,
12983,
12983,
12983,
12983,
12983,
12983,
12983,
12944,
12944,
12944,
12944,
12944,
12944,
12944,
12944,
12944,
12944,
12944,
12944,
12944,
12944,
12944,
12944,
12944,
12944,
12944,
12944,
12944,
12944,
12944,
12944,
12944,
12944,
12944,
12944,
12944,
12944,
12944,
12885,
12885,
12885,
12885,
12885,
12885,
12885,
12885,
12885,
12858,
12858,
12858,
12858,
12858,
12858,
12858,
12858,
12858,
12858,
12858,
12858,
12710,
12710,
12710,
12710,
12710,
12710,
12710,
12710,
12710,
12710,
12710,
12710,
12710,
12710,
12710,
12710,
12710,
12710,
12710,
12551,
12551,
12551,
12498,
12498,
12498,
12498,
12498,
12498,
12498,
12498,
12498,
12498,
12498,
12498,
12498,
12498,
12498,
12498,
12343,
12343,
12343,
12343,
12343,
12343,
12343,
12343,
12343,
12343,
12295,
12295,
12295,
12295,
12295,
12295,
12295,
12295,
12295,
12295,
12295,
12295,
12295,
12295,
12295,
12295,
12295,
12295,
12295,
12295,
12295,
12295,
12295,
12295,
12295,
12295,
12295,
12295,
12295,
12295,
12295,
12295,
12295,
12295,
12295,
12295,
12295,
12295,
12295,
12254,
12254,
12254,
12254,
12254,
12254,
12254,
12254,
12254,
12254,
12254,
12254,
12254,
12254,
12254,
12254,
12254,
12254,
12254,
12094,
12094,
12094,
12094,
12094,
12094,
12094,
12094,
12094,
12094,
12094,
12094,
12094,
12094,
12094,
12094,
12094,
12094,
12094,
12094,
12094,
12094,
12094,
12094,
12094,
12094,
12094,
12019,
12019,
12019,
12019,
12019,
12019,
12019,
12019,
12019,
12019,
12019,
12019,
12019,
12019,
12019,
12019,
12019,
12019,
12019,
12019,
12019,
12019,
12019,
12019,
12019,
12019,
12019,
12019,
12019,
12019,
12019,
12019,
12019,
12019,
12019,
12019,
12019,
12019,
12019,
12019,
12019,
12019,
12019,
12019,
12019,
12019,
12019,
12019,
12019,
12019,
12019,
12019,
12019,
12019,
12019,
12019,
11957,
11957,
11957,
11957,
11957,
11957,
11957,
11957,
11957,
11957,
11957,
11957,
11957,
11957,
11957,
11957,
11957,
11957,
11957,
11957,
11957,
11957,
11957,
11957,
11957,
11957,
11957,
11957,
11957,
11957,
11957,
11957,
11957,
11957,
11957,
11957,
11957,
11957,
11957,
11957,
11957,
11957,
11957,
11957,
11957,
11957,
11957,
11957,
11957,
11957,
11957,
11957,
11957,
11957,
11957,
11957,
11957,
11957,
11957,
11957,
11957,
11957,
11957,
11957,
11957,
11957,
11957,
11957,
11957,
11957,
11957,
11957,
11957,
11957,
11957,
11957,
11957,
11957,
11957,
11957,
11957,
11957,
11957,
11957,
11957,
11857,
11857,
11857,
11857,
11857,
11857,
11855,
11855,
11855,
11855,
11855,
11855,
11855,
11855,
11855,
11855,
11855,
11855,
11855,
11855,
11855,
11855,
11855,
11855,
11855,
11855,
11855,
11855,
11855,
11855,
11855,
11855,
11855,
11855,
11855,
11855,
11855,
11855,
11855,
11855,
11855,
11855,
11855,
11855,
11855,
11855,
11855,
11855,
11855,
11855,
11855,
11855,
11855,
11855,
11855,
11855,
11855,
11855,
11834,
11834,
11834,
11834,
11834,
11834,
11834,
11834,
11834,
11834,
11834,
11834,
11834,
11834,
11834,
11834,
11834,
11834,
11834,
11834,
11834,
11834,
11834,
11834,
11834,
11834,
11834,
11834,
11834,
11834,
11834,
11834,
11834,
11834,
11834,
11834,
11834,
11834,
11834,
11834,
11834,
11834,
11834,
11834,
11834,
11834,
11834,
11834,
11834,
11834,
11834,
11834,
11834,
11834,
11834,
11834,
11834,
11834,
11834,
11834,
11834,
11834,
11834,
11834,
11834,
11834,
11834,
11834,
11834,
11834,
11834,
11834,
11834,
11834,
11834,
11834,
11834,
11834,
11834,
11834,
11834,
11834,
11834,
11834,
11834,
11834,
11834,
11834,
11834,
11834,
11834,
11834,
11834,
11834,
11834,
11834,
11834,
11834,
11834,
11834,
11834,
11834,
11834,
11834,
11834,
11834,
11834,
11834,
11834,
11834,
11834,
11834,
11834,
11834,
11834,
11834,
11834,
11834,
11834,
11834,
11834,
11834,
11748,
11748,
11748,
11748,
11748,
11748,
11748,
11748,
11748,
11748,
11748,
11748,
11748,
11748,
11748,
11748,
11748,
11748,
11748,
11748,
11748,
11748,
11748,
11748,
11748,
11748,
11638,
11638,
11638,
11638,
11638,
11638,
11638,
11638,
11638,
11638,
11638,
11635,
11635,
11635,
11635,
11635,
11635,
11635,
11635,
11635,
11635,
11635,
11635,
11635,
11635,
11635,
11635,
11635,
11635,
11635,
11635,
11635,
11635,
11635,
11635,
11635,
11635,
11635,
11635,
11635,
11635,
11635,
11635,
11635,
11635,
11635,
11635,
11635,
11635,
11635,
11635,
11635,
11635,
11635,
11635,
11635,
11635,
11635,
11635,
11635,
11635,
11635,
11635,
11635,
11635,
11635,
11635,
11635,
11635,
11635,
11635,
11635,
11635,
11635,
11635,
11635,
11635,
11635,
11635,
11635,
11635,
11635,
11635,
11635,
11635,
11635,
11635,
11635,
11635,
11635,
11635,
11635,
11635,
11635,
11635,
11635,
11635,
11635,
11635,
11635,
11635,
11635,
11635,
11635,
11635,
11635,
11635,
11635,
11635,
11635,
11635,
11635,
11635,
11635,
11635,
11635,
11635,
11635,
11635,
11635,
11635,
11635,
11635,
11635,
11635,
11635,
11635,
11635,
11635,
11635,
11635,
11635,
11635,
11635,
11635,
11635,
11635,
11635,
11635,
11635,
11635,
11635,
11635,
11635,
11635,
11635,
11635,
11635,
11635,
11635,
11635,
11635,
11635,
11635,
11635,
11635,
11635,
11635,
11635,
11635,
11635,
11635,
11635,
11635,
11635,
11635,
11635,
11635,
11635,
11635,
11635,
11635,
11635,
11635,
11635,
11635,
11635,
11635,
11635,
11635,
11635,
11635,
11635,
11635,
11635,
11635,
11635,
11635,
11635,
11635,
11635,
11635,
11635,
11635,
11635,
11635,
11635,
11635,
11635,
11635,
11635,
11635,
11635,
11635,
11635,
11635,
11635,
11635,
11635,
11635,
11635,
11635,
11635,
11635,
11635,
11635,
11635,
11635,
11635,
11635,
11635,
11635,
11635,
11635,
11635,
11635,
11635,
11635,
11635,
11635,
11635,
11635,
11627,
11627,
11627,
11627,
11627,
11627,
11627,
11627,
11627,
11627,
11627,
11627,
11627,
11333,
11333,
11333,
11333,
11333,
11333,
11333,
11333,
11333,
11333,
11333,
11333,
11333,
11333,
11333,
11333,
11333,
11333,
11333,
11333,
11333,
11333,
11333,
11333,
11333,
11333,
11333,
11333,
11333,
11333,
11333,
11333,
11333,
11333,
11333,
11333,
11333,
11333,
11333,
11333,
11333,
11333,
11333,
11333,
11333,
11333,
11333,
11333,
11333,
11333,
11333,
11333,
11333,
11333,
11333,
11333,
11209,
11209,
11209,
11209,
11209,
11209,
11209,
11209,
11209,
11209,
11209,
11209,
11209,
11209,
11209,
11209,
11209,
11209,
11209,
11209,
11209,
11209,
11209,
11209,
10984,
10984,
10984,
10984,
10984,
10984,
10984,
10984,
10984,
10984,
10984,
10984,
10984,
10984,
10956,
10956,
10956,
10956,
10956,
10956,
10956,
10956,
10956,
10956,
10956,
10956,
10956,
10956,
10956,
10956,
10956,
10956,
10956,
10956,
10956,
10956,
10956,
10956,
10956,
10956,
10956,
10956,
10956,
10956,
10956,
10956,
10956,
10956,
10956,
10956,
10956,
10956,
10956,
10956,
10956,
10956,
10956,
10956,
10956,
10956,
10956,
10956,
10956,
10956,
10956,
10956,
10956,
10956,
10956,
10956,
10956,
10956,
10956,
10956,
10956,
10956,
10956,
10956,
10956,
10956,
10956,
10956,
10956,
10956,
10956,
10956,
10956,
10956,
10956,
10956,
10956,
10956,
10956,
10956,
10956,
10956,
10956,
1,
